
Gurobi 11.0.1 (win64) logging started Mon Apr  1 12:41:29 2024

Set parameter LogFile to value "C:\Projetos\Job_Rotation_Algorithms\Outputs\GurobiLogs\gurobi_log-output-32_hes-c161-BorbaRittModel-NoExtraConstraint-2.log"
Gurobi Optimizer version 11.0.1 build v11.0.1rc0 (win64 - Windows 10.0 (19045.2))

CPU model: 11th Gen Intel(R) Core(TM) i7-1165G7 @ 2.80GHz, instruction set [SSE2|AVX|AVX2|AVX512]
Thread count: 4 physical cores, 8 logical processors, using up to 1 threads


Gurobi 11.0.1 (win64) logging started Mon Apr  1 21:29:22 2024

Set parameter LogFile to value "C:\Projetos\Job_Rotation_Algorithms\Outputs\GurobiLogs\gurobi_log-output-32_hes-c161-BorbaRittModel-NoExtraConstraint-2.log"
Gurobi Optimizer version 11.0.1 build v11.0.1rc0 (win64 - Windows 10.0 (19045.2))

CPU model: 11th Gen Intel(R) Core(TM) i7-1165G7 @ 2.80GHz, instruction set [SSE2|AVX|AVX2|AVX512]
Thread count: 4 physical cores, 8 logical processors, using up to 1 threads


Gurobi 11.0.1 (win64) logging started Thu Apr  4 05:56:38 2024

Set parameter LogFile to value "C:\Projetos\Job_Rotation_Algorithms\Outputs\GurobiLogs\gurobi_log-output-32_hes-c161-BorbaRittModel-NoExtraConstraint-2.log"
Gurobi Optimizer version 11.0.1 build v11.0.1rc0 (win64 - Windows 10.0 (19045.2))

CPU model: 11th Gen Intel(R) Core(TM) i7-1165G7 @ 2.80GHz, instruction set [SSE2|AVX|AVX2|AVX512]
Thread count: 4 physical cores, 8 logical processors, using up to 1 threads

WLS license 2390832 - registered to Bitka Analytics
Optimize a model with 981 rows, 332 columns and 3154 nonzeros
Model fingerprint: 0xe0a8815a
Variable types: 2 continuous, 330 integer (330 binary)
Coefficient statistics:
  Matrix range     [1e+00, 2e+02]
  Objective range  [1e+00, 1e+00]
  Bounds range     [1e+00, 3e+02]
  RHS range        [1e+00, 3e+02]
Presolve removed 3 rows and 3 columns
Presolve time: 0.00s
Presolved: 978 rows, 329 columns, 3148 nonzeros
Variable types: 0 continuous, 329 integer (328 binary)

Root relaxation: objective 5.488703e+01, 652 iterations, 0.01 seconds (0.02 work units)

    Nodes    |    Current Node    |     Objective Bounds      |     Work
 Expl Unexpl |  Obj  Depth IntInf | Incumbent    BestBd   Gap | It/Node Time

     0     0   54.88703    0   87          -   54.88703      -     -    0s
     0     0   54.00000    0   97          -   54.00000      -     -    0s
     0     0   54.00000    0  124          -   54.00000      -     -    0s
     0     0   54.00000    0  124          -   54.00000      -     -    0s
     0     0   54.00000    0  103          -   54.00000      -     -    0s
     0     0   54.00000    0   76          -   54.00000      -     -    0s
     0     0   54.00000    0   79          -   54.00000      -     -    0s
     0     0   54.00000    0   77          -   54.00000      -     -    0s
     0     0   54.00000    0   79          -   54.00000      -     -    0s
     0     0   54.00000    0  100          -   54.00000      -     -    0s
     0     0   54.00000    0  100          -   54.00000      -     -    0s
     0     2   54.00000    0   63          -   54.00000      -     -    0s
H  944   361                      44.0000000   54.00000  22.7%  10.9    3s
H  944   343                      46.0000000   54.00000  17.4%  10.9    3s
H  993   327                      47.0000000   54.00000  14.9%  15.6    4s
  1086   304   53.42070   22  156   47.00000   54.00000  14.9%  24.4    5s
* 1196   263              37      48.0000000   54.00000  12.5%  31.2    5s
* 1503   185              33      49.0000000   54.00000  10.2%  41.8    7s
* 1743   106              36      50.0000000   53.80944  7.62%  44.3    7s

Cutting planes:
  Gomory: 4
  Cover: 5
  MIR: 11
  Mixing: 1
  StrongCG: 1
  Flow cover: 51
  Inf proof: 7
  Zero half: 18
  RLT: 43
  BQP: 4

Explored 2367 nodes (157940 simplex iterations) in 9.17 seconds (9.39 work units)
Thread count was 1 (of 8 available processors)

Solution count 6: 50 49 48 ... 44

Optimal solution found (tolerance 1.00e-03)
Best objective 5.000000000000e+01, best bound 5.000000000000e+01, gap 0.0000%
